instances/knapsack/discrete/knapsack_140_1.kp
5053
140
733

43 4.3 88
52 5.2 44
10 1.0 74
79 7.9 78
64 6.4 11
57 5.7 19
53 5.3 87
91 9.1 41
9 0.9 64
10 1.0 4
99 9.9 5
47 4.7 41
76 7.6 21
68 6.8 88
44 4.4 61
40 4.0 78
77 7.7 80
88 8.8 84
41 4.1 24
46 4.6 35
89 8.9 7
47 4.7 85
96 9.6 2
78 7.8 46
72 7.2 59
60 6.0 44
6 0.6 54
11 1.1 25
89 8.9 100
11 1.1 82
61 6.1 83
51 5.1 66
59 5.9 14
5 0.5 21
80 8.0 57
29 2.9 15
24 2.4 79
100 10.0 77
100 10.0 8
42 4.2 85
99 9.9 30
69 6.9 47
6 0.6 79
49 4.9 81
63 6.3 32
34 3.4 73
65 6.5 78
49 4.9 74
67 6.7 38
48 4.8 19
74 7.4 21
80 8.0 48
93 9.3 89
100 10.0 15
24 2.4 46
71 7.1 16
77 7.7 72
50 5.0 82
60 6.0 18
74 7.4 69
24 2.4 34
86 8.6 44
87 8.7 99
98 9.8 95
47 4.7 40
72 7.2 39
32 3.2 43
82 8.2 51
92 9.2 62
37 3.7 95
53 5.3 55
1 0.1 65
46 4.6 3
95 9.5 23
27 2.7 16
44 4.4 8
58 5.8 4
91 9.1 95
8 0.8 66
98 9.8 85
69 6.9 1
21 2.1 100
2 0.2 27
53 5.3 92
57 5.7 75
9 0.9 70
75 7.5 72
40 4.0 1
22 2.2 18
23 2.3 16
4 0.4 72
20 2.0 79
96 9.6 15
67 6.7 46
8 0.8 42
13 1.3 96
29 2.9 91
76 7.6 98
52 5.2 10
96 9.6 58
49 4.9 34
92 9.2 31
70 7.0 44
72 7.2 83
69 6.9 65
62 6.2 25
91 9.1 24
30 3.0 26
86 8.6 64
85 8.5 86
54 5.4 63
83 8.3 4
73 7.3 43
41 4.1 13
77 7.7 20
78 7.8 59
31 3.1 33
37 3.7 55
25 2.5 36
24 2.4 17
63 6.3 35
92 9.2 96
31 3.1 8
34 3.4 97
37 3.7 89
78 7.8 70
35 3.5 74
67 6.7 56
18 1.8 97
95 9.5 50
45 4.5 76
73 7.3 77
66 6.6 6
12 1.2 52
76 7.6 91
18 1.8 29
21 2.1 46
2 0.2 7
89 8.9 37
56 5.6 63

37497
645

[1.22 2.06 1.95 2.06 3.19 3.52 3.79 1.04 0.58 4.27 3.74 3.53 0.53 4.4 0.42 4.17 2.12 0.9 0.25 2.21 3.38 2.79 4.32 0.33 1.87 1.8 3.73 3.18 0.59 0.15 2.06 1.3 0.38 1.12 4.35 1.66 0.68 0.54 0.77 3.35 1.15 3.35 0.09 2.4 3.68 3.08 1.01 0.76 3.98 1.41 2.59 2.22 1.17 0.64 3.94 0.91 1.85 2.09 3.23 3.79 1.45 1.72 3.48 2.47 1.27 4.02 2.7 3.41 2.85 3.06 3.47 2.18 4.07 0.52 2.82 1.89 2.39 2.79 1.05 2.47 3.5 3.26 2.13 0.87 2.2 1.15 1.41 1.68 0.99 3.75 1.83 4.17 0.24 2.96 0.56 2.58 2.69 3.2 0.19 1.91 1.37 0.9 4.29 3.07 3.52 0.9 3.98 1.99 1.67 3.02 4.11 3.07 2.56 3.36 3.86 2.39 0.99 1.64 4.5 2.38 1.26 4.2 2.57 0.75 2.57 0.53 1.71 4.41 1.1 2.12 0.33 2.42 3.1 1.63 4.25 3.24 0.08 1.89 3.17 1.01]

[57 10 96 21 50 99 91 37 67 88 21 33 10 66 18 2 3 38 3 56 27 41 46 44 14 14 24 9 35 37 83 9 29 35 42 47 50 10 10 36 29 75 48 87 57 44 71 79 29 30 40 74 43 82 26 97 23 52 46 96 2 36 45 88 93 86 50 56 58 39 99 63 84 57 97 14 32 49 78 96 55 99 20 11 67 55 41 10 60 25 38 18 22 9 34 47 63 74 90 62 35 98 16 54 3 4 21 64 52 63 56 57 59 39 99 100 69 23 3 34 1 62 57 24 43 60 57 93 96 73 35 31 28 18 34 60 51 96 87 66]
