instances/knapsack/discrete/knapsack_140_1.lp
\ Model knapsack_140_1
\ LP format - for model browsing. Use MPS format to capture full model detail.
\ Signature: 0x9977cb8fbdb63468
Minimize
  - 87 x[0] - 19 x[1] - 17 x[2] - 9 x[3] - 98 x[4] - 78 x[5] - 78 x[6]
   - 68 x[7] - 19 x[8] - 95 x[9] - 20 x[10] - 8 x[11] - 72 x[12] - 3 x[13]
   - 88 x[14] - 97 x[15] - 91 x[16] - 7 x[17] - 7 x[18] - 38 x[19]
   - 70 x[20] - 32 x[21] - 97 x[22] - 41 x[23] - 70 x[24] - 71 x[25]
   - 89 x[26] - 8 x[27] - 27 x[28] - 93 x[29] - 82 x[30] - 13 x[31]
   - 57 x[32] - 48 x[33] - 28 x[34] - 86 x[35] - 78 x[36] - 52 x[37]
   - 23 x[38] - 32 x[39] - 97 x[40] - 78 x[41] - 66 x[42] - 60 x[43]
   - 59 x[44] - 12 x[45] - 25 x[46] - 25 x[47] - 73 x[48] - 54 x[49]
   - 64 x[50] - 59 x[51] - 100 x[52] - 22 x[53] - 69 x[54] - 19 x[55]
   - 55 x[56] - 65 x[57] - 93 x[58] - 20 x[59] - 49 x[60] - 79 x[61]
   - 38 x[62] - 70 x[63] - 47 x[64] - 94 x[65] - 46 x[66] - 10 x[67]
   - 21 x[68] - 10 x[69] - 42 x[70] - 52 x[71] - 50 x[72] - 26 x[73]
   - 55 x[74] - 7 x[75] - 91 x[76] - 46 x[77] - 73 x[78] - 36 x[79]
   - 48 x[80] - 39 x[81] - 78 x[82] - 11 x[83] - 42 x[84] - 37 x[85]
   - 75 x[86] - 44 x[87] - 53 x[88] - 59 x[89] - 35 x[90] - 10 x[91]
   - 62 x[92] - 45 x[93] - 61 x[94] - 67 x[95] - 22 x[96] - 37 x[97]
   - x[98] - 69 x[99] - 13 x[100] - 98 x[101] - 91 x[102] - 54 x[103]
   - 96 x[104] - 8 x[105] - 95 x[106] - 97 x[107] - 23 x[108] - 53 x[109]
   - 22 x[110] - 35 x[111] - 58 x[112] - 24 x[113] - 75 x[114] - 38 x[115]
   - 64 x[116] - 26 x[117] - 15 x[118] - 56 x[119] - 98 x[120] - 19 x[121]
   - 63 x[122] - 80 x[123] - 60 x[124] - 21 x[125] - 33 x[126] - 19 x[127]
   - 52 x[128] - 33 x[129] - 71 x[130] - 64 x[131] - 37 x[132] - 31 x[133]
   - 42 x[134] - 60 x[135] - 97 x[136] - 50 x[137] - 96 x[138] - 70 x[139]
Subject To
 primal_upper: 14 x[0] + 99 x[1] + 97 x[2] + 30 x[3] + 71 x[4] + 92 x[5]
   + 28 x[6] + 74 x[7] + 88 x[8] + 17 x[9] + 2 x[10] + 78 x[11] + 59 x[12]
   + 47 x[13] + 43 x[14] + 75 x[15] + 52 x[16] + 67 x[17] + 40 x[18]
   + 93 x[19] + 24 x[20] + 38 x[21] + 67 x[22] + 57 x[23] + 31 x[24]
   + 23 x[25] + x[26] + 54 x[27] + 28 x[28] + 94 x[29] + 68 x[30] + 2 x[31]
   + 2 x[32] + 80 x[33] + 51 x[34] + 64 x[35] + 19 x[36] + 35 x[37]
   + 39 x[38] + 69 x[39] + 26 x[40] + 40 x[41] + 25 x[42] + 4 x[43]
   + 90 x[44] + 73 x[45] + 56 x[46] + 8 x[47] + 50 x[48] + 15 x[49]
   + 49 x[50] + 7 x[51] + 92 x[52] + 15 x[53] + 59 x[54] + 58 x[55]
   + 36 x[56] + 53 x[57] + 15 x[58] + 29 x[59] + 11 x[60] + 53 x[61]
   + 86 x[62] + 93 x[63] + 82 x[64] + 51 x[65] + 35 x[66] + 5 x[67]
   + 63 x[68] + 44 x[69] + 64 x[70] + 44 x[71] + 93 x[72] + 82 x[73]
   + 26 x[74] + 35 x[75] + 97 x[76] + 82 x[77] + 27 x[78] + 73 x[79]
   + 40 x[80] + 80 x[81] + 17 x[82] + 24 x[83] + 76 x[84] + 96 x[85]
   + 82 x[86] + 67 x[87] + x[88] + 26 x[89] + 71 x[90] + 7 x[91] + 35 x[92]
   + 70 x[93] + 87 x[94] + 60 x[95] + 8 x[96] + 23 x[97] + 79 x[98]
   + 3 x[99] + 100 x[100] + 31 x[101] + 21 x[102] + 51 x[103] + 100 x[104]
   + 97 x[105] + 82 x[106] + 17 x[107] + 77 x[108] + 96 x[109] + 85 x[110]
   + 38 x[111] + 96 x[112] + 84 x[113] + 72 x[114] + x[115] + 86 x[116]
   + 64 x[117] + 92 x[118] + 47 x[119] + 66 x[120] + 7 x[121] + 66 x[122]
   + 93 x[123] + 72 x[124] + 57 x[125] + 22 x[126] + 18 x[127] + 45 x[128]
   + 74 x[129] + 28 x[130] + 96 x[131] + 25 x[132] + 91 x[133] + 79 x[134]
   + 57 x[135] + 36 x[136] + 61 x[137] + 12 x[138] + 11 x[139] + 1.4 r[0]
   + 9.9 r[1] + 9.7 r[2] + 3 r[3] + 7.1 r[4] + 9.2 r[5] + 2.8 r[6]
   + 7.4 r[7] + 8.8 r[8] + 1.7 r[9] + 0.2 r[10] + 7.8 r[11] + 5.9 r[12]
   + 4.7 r[13] + 4.3 r[14] + 7.5 r[15] + 5.2 r[16] + 6.7 r[17] + 4 r[18]
   + 9.3 r[19] + 2.4 r[20] + 3.8 r[21] + 6.7 r[22] + 5.7 r[23] + 3.1 r[24]
   + 2.3 r[25] + 0.1 r[26] + 5.4 r[27] + 2.8 r[28] + 9.4 r[29] + 6.8 r[30]
   + 0.2 r[31] + 0.2 r[32] + 8 r[33] + 5.1 r[34] + 6.4 r[35] + 1.9 r[36]
   + 3.5 r[37] + 3.9 r[38] + 6.9 r[39] + 2.6 r[40] + 4 r[41] + 2.5 r[42]
   + 0.4 r[43] + 9 r[44] + 7.3 r[45] + 5.6 r[46] + 0.8 r[47] + 5 r[48]
   + 1.5 r[49] + 4.9 r[50] + 0.7 r[51] + 9.2 r[52] + 1.5 r[53] + 5.9 r[54]
   + 5.8 r[55] + 3.6 r[56] + 5.3 r[57] + 1.5 r[58] + 2.9 r[59] + 1.1 r[60]
   + 5.3 r[61] + 8.6 r[62] + 9.3 r[63] + 8.2 r[64] + 5.1 r[65] + 3.5 r[66]
   + 0.5 r[67] + 6.3 r[68] + 4.4 r[69] + 6.4 r[70] + 4.4 r[71] + 9.3 r[72]
   + 8.2 r[73] + 2.6 r[74] + 3.5 r[75] + 9.7 r[76] + 8.2 r[77] + 2.7 r[78]
   + 7.3 r[79] + 4 r[80] + 8 r[81] + 1.7 r[82] + 2.4 r[83] + 7.6 r[84]
   + 9.6 r[85] + 8.2 r[86] + 6.7 r[87] + 0.1 r[88] + 2.6 r[89] + 7.1 r[90]
   + 0.7 r[91] + 3.5 r[92] + 7 r[93] + 8.7 r[94] + 6 r[95] + 0.8 r[96]
   + 2.3 r[97] + 7.9 r[98] + 0.3 r[99] + 10 r[100] + 3.1 r[101]
   + 2.1 r[102] + 5.1 r[103] + 10 r[104] + 9.7 r[105] + 8.2 r[106]
   + 1.7 r[107] + 7.7 r[108] + 9.6 r[109] + 8.5 r[110] + 3.8 r[111]
   + 9.6 r[112] + 8.4 r[113] + 7.2 r[114] + 0.1 r[115] + 8.6 r[116]
   + 6.4 r[117] + 9.2 r[118] + 4.7 r[119] + 6.6 r[120] + 0.7 r[121]
   + 6.6 r[122] + 9.3 r[123] + 7.2 r[124] + 5.7 r[125] + 2.2 r[126]
   + 1.8 r[127] + 4.5 r[128] + 7.4 r[129] + 2.8 r[130] + 9.6 r[131]
   + 2.5 r[132] + 9.1 r[133] + 7.9 r[134] + 5.7 r[135] + 3.6 r[136]
   + 6.1 r[137] + 1.2 r[138] + 1.1 r[139] <= 691
 primal_lower: 2.775164352162503 x[0] + 3.175493433460549 x[1]
   + 3.40941976624539 x[2] + 0.4412239593798494 x[3]
   + 3.362743802167808 x[4] + 4.0390923650462 x[5] + 4.384742023316204 x[6]
   + 0.00180183883182221 x[7] + 3.906323940335738 x[8]
   + 3.010934177317939 x[9] + 1.524814396374994 x[10]
   + 3.863803694549776 x[11] + 0.1785454957799459 x[12]
   + 4.348523487331914 x[13] + 2.303246745491373 x[14]
   + 1.832095364087504 x[15] + 0.9754998863200948 x[16]
   + 3.740462952679219 x[17] + 4.068041674491881 x[18]
   + 4.124065058735988 x[19] + 1.346327741806135 x[20]
   + 3.749377118724028 x[21] + 2.094568641566443 x[22]
   + 4.053116486345489 x[23] + 2.006074900231226 x[24]
   + 1.244832208272314 x[25] + 2.193515706653354 x[26]
   + 4.098926734709062 x[27] + 3.405224505428475 x[28]
   + 1.786502718553588 x[29] + 0.9830871316877043 x[30]
   + 3.986808888456271 x[31] + 2.837000780321317 x[32]
   + 3.830467221594179 x[33] + 4.374499659112066 x[34]
   + 2.78858914662078 x[35] + 0.6558369692372957 x[36]
   + 3.762154689766816 x[37] + 2.545859604854884 x[38]
   + 0.9359803900711324 x[39] + 0.4627737060453321 x[40]
   + 1.371481541011054 x[41] + 3.956799724173015 x[42]
   + 3.657853205351129 x[43] + 1.435873990525176 x[44]
   + 0.5991972336055095 x[45] + 4.175022117437895 x[46]
   + 4.208464302029093 x[47] + 2.596610404226721 x[48]
   + 4.456008453026091 x[49] + 1.817247148136997 x[50]
   + 0.3536322095941348 x[51] + 1.912294116254127 x[52]
   + 2.897543782788355 x[53] + 3.360975859358182 x[54]
   + 2.43043782551689 x[55] + 0.019970252452755 x[56]
   + 0.333132105048405 x[57] + 0.9067753794718473 x[58]
   + 3.064770057573508 x[59] + 1.27870887486903 x[60]
   + 2.399418778878069 x[61] + 3.411691428911309 x[62]
   + 2.867143601407883 x[63] + 0.8398884345021829 x[64]
   + 2.821785602949925 x[65] + 2.127874534785924 x[66]
   + 0.0816976038297073 x[67] + 4.506262580247517 x[68]
   + 0.0944141898338717 x[69] + 2.469338520965094 x[70]
   + 3.895266469527769 x[71] + 2.94952888226602 x[72]
   + 2.153828702080139 x[73] + 1.876410853789165 x[74]
   + 3.672685074380567 x[75] + 2.59587620068586 x[76]
   + 2.397086035789804 x[77] + 2.427508140877262 x[78]
   + 1.386098331004583 x[79] + 1.368988382641533 x[80]
   + 3.565366255284367 x[81] + 0.9415810462107583 x[82]
   + 3.665044805014288 x[83] + 3.202088226438535 x[84]
   + 0.307187034361066 x[85] + 2.884167459876958 x[86]
   + 4.268502582232095 x[87] + 1.04230762958615 x[88]
   + 3.57746524583081 x[89] + 0.6344608467884386 x[90]
   + 1.255433705651415 x[91] + 0.5920499174597262 x[92]
   + 3.853402582685479 x[93] + 3.461330070398656 x[94]
   + 0.0849934635552331 x[95] + 2.080794985211945 x[96]
   + 2.465232434556615 x[97] + 2.683734717436952 x[98]
   + 1.515123712807726 x[99] + 1.61664930388305 x[100]
   + 4.298163381887885 x[101] + 3.555458433754758 x[102]
   + 3.680701572008957 x[103] + 0.1135371289466005 x[104]
   + 3.138834068187685 x[105] + 4.016550993339435 x[106]
   + 0.0911743844001148 x[107] + 4.396902495375935 x[108]
   + 3.410338734256027 x[109] + 1.024286309019931 x[110]
   + 0.6944642529916464 x[111] + 2.454002681416344 x[112]
   + 0.3109065472613356 x[113] + 1.280550784284125 x[114]
   + 1.516129941890076 x[115] + 2.523146010398044 x[116]
   + 2.986201189233917 x[117] + 3.002187596265412 x[118]
   + 2.515068223423111 x[119] + 1.360348057664195 x[120]
   + 0.0897652839692384 x[121] + 1.776322413101973 x[122]
   + 3.286855498414051 x[123] + 3.259820911971398 x[124]
   + 3.840225984179716 x[125] + 2.093585944563513 x[126]
   + 2.495057747314776 x[127] + 3.659035513917879 x[128]
   + 0.1070616171137643 x[129] + 0.8830498527756135 x[130]
   + 0.1311183128619803 x[131] + 0.9535305162541705 x[132]
   + 3.08272508252141 x[133] + 2.064868246921966 x[134]
   + 0.9479891716033266 x[135] + 0.995722430231294 x[136]
   + 0.5412483566921475 x[137] + 2.352778998345165 x[138]
   + 1.533064941827007 x[139] + 7 u[0] + 47 u[1] + 57 u[2] + 78 u[3]
   + 67 u[4] + 29 u[5] + 64 u[6] + 99 u[7] + 16 u[8] + 25 u[9] + 27 u[10]
   + 10 u[11] + 35 u[12] + 39 u[13] + 20 u[14] + 12 u[15] + 80 u[16]
   + 95 u[17] + 36 u[18] + 49 u[19] + 12 u[20] + 83 u[21] + 99 u[22]
   + 74 u[23] + 20 u[24] + 19 u[25] + 9 u[26] + 63 u[27] + 69 u[28]
   + 26 u[29] + 9 u[30] + 31 u[31] + 59 u[32] + 72 u[33] + 31 u[34]
   + 8 u[35] + 35 u[36] + 8 u[37] + 51 u[38] + 34 u[39] + 22 u[40]
   + 45 u[41] + 81 u[42] + 45 u[43] + 26 u[44] + 2 u[45] + 53 u[46]
   + 89 u[47] + 90 u[48] + 87 u[49] + 86 u[50] + 95 u[51] + 100 u[52]
   + 99 u[53] + 28 u[54] + 11 u[55] + 8 u[56] + 66 u[57] + 27 u[58]
   + 77 u[59] + 36 u[60] + 14 u[61] + 11 u[62] + 98 u[63] + 47 u[64]
   + 71 u[65] + 28 u[66] + 58 u[67] + 27 u[68] + 57 u[69] + 37 u[70]
   + 5 u[71] + u[72] + 14 u[73] + 7 u[74] + 56 u[75] + 38 u[76] + 58 u[77]
   + 32 u[78] + 2 u[79] + 89 u[80] + 89 u[81] + 14 u[82] + 29 u[83]
   + 81 u[84] + 81 u[85] + 3 u[86] + 75 u[87] + 37 u[88] + 90 u[89]
   + 68 u[90] + 72 u[91] + 32 u[92] + 83 u[93] + 19 u[94] + 68 u[95]
   + 84 u[96] + 44 u[97] + 87 u[98] + 95 u[99] + 56 u[100] + 91 u[101]
   + 13 u[102] + 51 u[103] + 4 u[104] + 53 u[105] + 6 u[106] + 94 u[107]
   + 70 u[108] + 88 u[109] + 54 u[110] + 42 u[111] + 92 u[112] + 88 u[113]
   + 68 u[114] + 10 u[115] + 86 u[116] + 32 u[117] + 12 u[118] + 20 u[119]
   + 31 u[120] + 16 u[121] + 55 u[122] + 2 u[123] + 92 u[124] + 22 u[125]
   + 71 u[126] + 55 u[127] + 42 u[128] + 2 u[129] + 41 u[130] + 100 u[131]
   + 54 u[132] + 3 u[133] + 84 u[134] + 49 u[135] + 4 u[136] + 62 u[137]
   + 45 u[138] + 55 u[139] <= 67224
 mccormick1[0]: - u[0] + r[0] <= 0
 mccormick1[1]: - u[1] + r[1] <= 0
 mccormick1[2]: - u[2] + r[2] <= 0
 mccormick1[3]: - u[3] + r[3] <= 0
 mccormick1[4]: - u[4] + r[4] <= 0
 mccormick1[5]: - u[5] + r[5] <= 0
 mccormick1[6]: - u[6] + r[6] <= 0
 mccormick1[7]: - u[7] + r[7] <= 0
 mccormick1[8]: - u[8] + r[8] <= 0
 mccormick1[9]: - u[9] + r[9] <= 0
 mccormick1[10]: - u[10] + r[10] <= 0
 mccormick1[11]: - u[11] + r[11] <= 0
 mccormick1[12]: - u[12] + r[12] <= 0
 mccormick1[13]: - u[13] + r[13] <= 0
 mccormick1[14]: - u[14] + r[14] <= 0
 mccormick1[15]: - u[15] + r[15] <= 0
 mccormick1[16]: - u[16] + r[16] <= 0
 mccormick1[17]: - u[17] + r[17] <= 0
 mccormick1[18]: - u[18] + r[18] <= 0
 mccormick1[19]: - u[19] + r[19] <= 0
 mccormick1[20]: - u[20] + r[20] <= 0
 mccormick1[21]: - u[21] + r[21] <= 0
 mccormick1[22]: - u[22] + r[22] <= 0
 mccormick1[23]: - u[23] + r[23] <= 0
 mccormick1[24]: - u[24] + r[24] <= 0
 mccormick1[25]: - u[25] + r[25] <= 0
 mccormick1[26]: - u[26] + r[26] <= 0
 mccormick1[27]: - u[27] + r[27] <= 0
 mccormick1[28]: - u[28] + r[28] <= 0
 mccormick1[29]: - u[29] + r[29] <= 0
 mccormick1[30]: - u[30] + r[30] <= 0
 mccormick1[31]: - u[31] + r[31] <= 0
 mccormick1[32]: - u[32] + r[32] <= 0
 mccormick1[33]: - u[33] + r[33] <= 0
 mccormick1[34]: - u[34] + r[34] <= 0
 mccormick1[35]: - u[35] + r[35] <= 0
 mccormick1[36]: - u[36] + r[36] <= 0
 mccormick1[37]: - u[37] + r[37] <= 0
 mccormick1[38]: - u[38] + r[38] <= 0
 mccormick1[39]: - u[39] + r[39] <= 0
 mccormick1[40]: - u[40] + r[40] <= 0
 mccormick1[41]: - u[41] + r[41] <= 0
 mccormick1[42]: - u[42] + r[42] <= 0
 mccormick1[43]: - u[43] + r[43] <= 0
 mccormick1[44]: - u[44] + r[44] <= 0
 mccormick1[45]: - u[45] + r[45] <= 0
 mccormick1[46]: - u[46] + r[46] <= 0
 mccormick1[47]: - u[47] + r[47] <= 0
 mccormick1[48]: - u[48] + r[48] <= 0
 mccormick1[49]: - u[49] + r[49] <= 0
 mccormick1[50]: - u[50] + r[50] <= 0
 mccormick1[51]: - u[51] + r[51] <= 0
 mccormick1[52]: - u[52] + r[52] <= 0
 mccormick1[53]: - u[53] + r[53] <= 0
 mccormick1[54]: - u[54] + r[54] <= 0
 mccormick1[55]: - u[55] + r[55] <= 0
 mccormick1[56]: - u[56] + r[56] <= 0
 mccormick1[57]: - u[57] + r[57] <= 0
 mccormick1[58]: - u[58] + r[58] <= 0
 mccormick1[59]: - u[59] + r[59] <= 0
 mccormick1[60]: - u[60] + r[60] <= 0
 mccormick1[61]: - u[61] + r[61] <= 0
 mccormick1[62]: - u[62] + r[62] <= 0
 mccormick1[63]: - u[63] + r[63] <= 0
 mccormick1[64]: - u[64] + r[64] <= 0
 mccormick1[65]: - u[65] + r[65] <= 0
 mccormick1[66]: - u[66] + r[66] <= 0
 mccormick1[67]: - u[67] + r[67] <= 0
 mccormick1[68]: - u[68] + r[68] <= 0
 mccormick1[69]: - u[69] + r[69] <= 0
 mccormick1[70]: - u[70] + r[70] <= 0
 mccormick1[71]: - u[71] + r[71] <= 0
 mccormick1[72]: - u[72] + r[72] <= 0
 mccormick1[73]: - u[73] + r[73] <= 0
 mccormick1[74]: - u[74] + r[74] <= 0
 mccormick1[75]: - u[75] + r[75] <= 0
 mccormick1[76]: - u[76] + r[76] <= 0
 mccormick1[77]: - u[77] + r[77] <= 0
 mccormick1[78]: - u[78] + r[78] <= 0
 mccormick1[79]: - u[79] + r[79] <= 0
 mccormick1[80]: - u[80] + r[80] <= 0
 mccormick1[81]: - u[81] + r[81] <= 0
 mccormick1[82]: - u[82] + r[82] <= 0
 mccormick1[83]: - u[83] + r[83] <= 0
 mccormick1[84]: - u[84] + r[84] <= 0
 mccormick1[85]: - u[85] + r[85] <= 0
 mccormick1[86]: - u[86] + r[86] <= 0
 mccormick1[87]: - u[87] + r[87] <= 0
 mccormick1[88]: - u[88] + r[88] <= 0
 mccormick1[89]: - u[89] + r[89] <= 0
 mccormick1[90]: - u[90] + r[90] <= 0
 mccormick1[91]: - u[91] + r[91] <= 0
 mccormick1[92]: - u[92] + r[92] <= 0
 mccormick1[93]: - u[93] + r[93] <= 0
 mccormick1[94]: - u[94] + r[94] <= 0
 mccormick1[95]: - u[95] + r[95] <= 0
 mccormick1[96]: - u[96] + r[96] <= 0
 mccormick1[97]: - u[97] + r[97] <= 0
 mccormick1[98]: - u[98] + r[98] <= 0
 mccormick1[99]: - u[99] + r[99] <= 0
 mccormick1[100]: - u[100] + r[100] <= 0
 mccormick1[101]: - u[101] + r[101] <= 0
 mccormick1[102]: - u[102] + r[102] <= 0
 mccormick1[103]: - u[103] + r[103] <= 0
 mccormick1[104]: - u[104] + r[104] <= 0
 mccormick1[105]: - u[105] + r[105] <= 0
 mccormick1[106]: - u[106] + r[106] <= 0
 mccormick1[107]: - u[107] + r[107] <= 0
 mccormick1[108]: - u[108] + r[108] <= 0
 mccormick1[109]: - u[109] + r[109] <= 0
 mccormick1[110]: - u[110] + r[110] <= 0
 mccormick1[111]: - u[111] + r[111] <= 0
 mccormick1[112]: - u[112] + r[112] <= 0
 mccormick1[113]: - u[113] + r[113] <= 0
 mccormick1[114]: - u[114] + r[114] <= 0
 mccormick1[115]: - u[115] + r[115] <= 0
 mccormick1[116]: - u[116] + r[116] <= 0
 mccormick1[117]: - u[117] + r[117] <= 0
 mccormick1[118]: - u[118] + r[118] <= 0
 mccormick1[119]: - u[119] + r[119] <= 0
 mccormick1[120]: - u[120] + r[120] <= 0
 mccormick1[121]: - u[121] + r[121] <= 0
 mccormick1[122]: - u[122] + r[122] <= 0
 mccormick1[123]: - u[123] + r[123] <= 0
 mccormick1[124]: - u[124] + r[124] <= 0
 mccormick1[125]: - u[125] + r[125] <= 0
 mccormick1[126]: - u[126] + r[126] <= 0
 mccormick1[127]: - u[127] + r[127] <= 0
 mccormick1[128]: - u[128] + r[128] <= 0
 mccormick1[129]: - u[129] + r[129] <= 0
 mccormick1[130]: - u[130] + r[130] <= 0
 mccormick1[131]: - u[131] + r[131] <= 0
 mccormick1[132]: - u[132] + r[132] <= 0
 mccormick1[133]: - u[133] + r[133] <= 0
 mccormick1[134]: - u[134] + r[134] <= 0
 mccormick1[135]: - u[135] + r[135] <= 0
 mccormick1[136]: - u[136] + r[136] <= 0
 mccormick1[137]: - u[137] + r[137] <= 0
 mccormick1[138]: - u[138] + r[138] <= 0
 mccormick1[139]: - u[139] + r[139] <= 0
 mccormick2[0]: - x[0] + r[0] <= 0
 mccormick2[1]: - x[1] + r[1] <= 0
 mccormick2[2]: - x[2] + r[2] <= 0
 mccormick2[3]: - x[3] + r[3] <= 0
 mccormick2[4]: - x[4] + r[4] <= 0
 mccormick2[5]: - x[5] + r[5] <= 0
 mccormick2[6]: - x[6] + r[6] <= 0
 mccormick2[7]: - x[7] + r[7] <= 0
 mccormick2[8]: - x[8] + r[8] <= 0
 mccormick2[9]: - x[9] + r[9] <= 0
 mccormick2[10]: - x[10] + r[10] <= 0
 mccormick2[11]: - x[11] + r[11] <= 0
 mccormick2[12]: - x[12] + r[12] <= 0
 mccormick2[13]: - x[13] + r[13] <= 0
 mccormick2[14]: - x[14] + r[14] <= 0
 mccormick2[15]: - x[15] + r[15] <= 0
 mccormick2[16]: - x[16] + r[16] <= 0
 mccormick2[17]: - x[17] + r[17] <= 0
 mccormick2[18]: - x[18] + r[18] <= 0
 mccormick2[19]: - x[19] + r[19] <= 0
 mccormick2[20]: - x[20] + r[20] <= 0
 mccormick2[21]: - x[21] + r[21] <= 0
 mccormick2[22]: - x[22] + r[22] <= 0
 mccormick2[23]: - x[23] + r[23] <= 0
 mccormick2[24]: - x[24] + r[24] <= 0
 mccormick2[25]: - x[25] + r[25] <= 0
 mccormick2[26]: - x[26] + r[26] <= 0
 mccormick2[27]: - x[27] + r[27] <= 0
 mccormick2[28]: - x[28] + r[28] <= 0
 mccormick2[29]: - x[29] + r[29] <= 0
 mccormick2[30]: - x[30] + r[30] <= 0
 mccormick2[31]: - x[31] + r[31] <= 0
 mccormick2[32]: - x[32] + r[32] <= 0
 mccormick2[33]: - x[33] + r[33] <= 0
 mccormick2[34]: - x[34] + r[34] <= 0
 mccormick2[35]: - x[35] + r[35] <= 0
 mccormick2[36]: - x[36] + r[36] <= 0
 mccormick2[37]: - x[37] + r[37] <= 0
 mccormick2[38]: - x[38] + r[38] <= 0
 mccormick2[39]: - x[39] + r[39] <= 0
 mccormick2[40]: - x[40] + r[40] <= 0
 mccormick2[41]: - x[41] + r[41] <= 0
 mccormick2[42]: - x[42] + r[42] <= 0
 mccormick2[43]: - x[43] + r[43] <= 0
 mccormick2[44]: - x[44] + r[44] <= 0
 mccormick2[45]: - x[45] + r[45] <= 0
 mccormick2[46]: - x[46] + r[46] <= 0
 mccormick2[47]: - x[47] + r[47] <= 0
 mccormick2[48]: - x[48] + r[48] <= 0
 mccormick2[49]: - x[49] + r[49] <= 0
 mccormick2[50]: - x[50] + r[50] <= 0
 mccormick2[51]: - x[51] + r[51] <= 0
 mccormick2[52]: - x[52] + r[52] <= 0
 mccormick2[53]: - x[53] + r[53] <= 0
 mccormick2[54]: - x[54] + r[54] <= 0
 mccormick2[55]: - x[55] + r[55] <= 0
 mccormick2[56]: - x[56] + r[56] <= 0
 mccormick2[57]: - x[57] + r[57] <= 0
 mccormick2[58]: - x[58] + r[58] <= 0
 mccormick2[59]: - x[59] + r[59] <= 0
 mccormick2[60]: - x[60] + r[60] <= 0
 mccormick2[61]: - x[61] + r[61] <= 0
 mccormick2[62]: - x[62] + r[62] <= 0
 mccormick2[63]: - x[63] + r[63] <= 0
 mccormick2[64]: - x[64] + r[64] <= 0
 mccormick2[65]: - x[65] + r[65] <= 0
 mccormick2[66]: - x[66] + r[66] <= 0
 mccormick2[67]: - x[67] + r[67] <= 0
 mccormick2[68]: - x[68] + r[68] <= 0
 mccormick2[69]: - x[69] + r[69] <= 0
 mccormick2[70]: - x[70] + r[70] <= 0
 mccormick2[71]: - x[71] + r[71] <= 0
 mccormick2[72]: - x[72] + r[72] <= 0
 mccormick2[73]: - x[73] + r[73] <= 0
 mccormick2[74]: - x[74] + r[74] <= 0
 mccormick2[75]: - x[75] + r[75] <= 0
 mccormick2[76]: - x[76] + r[76] <= 0
 mccormick2[77]: - x[77] + r[77] <= 0
 mccormick2[78]: - x[78] + r[78] <= 0
 mccormick2[79]: - x[79] + r[79] <= 0
 mccormick2[80]: - x[80] + r[80] <= 0
 mccormick2[81]: - x[81] + r[81] <= 0
 mccormick2[82]: - x[82] + r[82] <= 0
 mccormick2[83]: - x[83] + r[83] <= 0
 mccormick2[84]: - x[84] + r[84] <= 0
 mccormick2[85]: - x[85] + r[85] <= 0
 mccormick2[86]: - x[86] + r[86] <= 0
 mccormick2[87]: - x[87] + r[87] <= 0
 mccormick2[88]: - x[88] + r[88] <= 0
 mccormick2[89]: - x[89] + r[89] <= 0
 mccormick2[90]: - x[90] + r[90] <= 0
 mccormick2[91]: - x[91] + r[91] <= 0
 mccormick2[92]: - x[92] + r[92] <= 0
 mccormick2[93]: - x[93] + r[93] <= 0
 mccormick2[94]: - x[94] + r[94] <= 0
 mccormick2[95]: - x[95] + r[95] <= 0
 mccormick2[96]: - x[96] + r[96] <= 0
 mccormick2[97]: - x[97] + r[97] <= 0
 mccormick2[98]: - x[98] + r[98] <= 0
 mccormick2[99]: - x[99] + r[99] <= 0
 mccormick2[100]: - x[100] + r[100] <= 0
 mccormick2[101]: - x[101] + r[101] <= 0
 mccormick2[102]: - x[102] + r[102] <= 0
 mccormick2[103]: - x[103] + r[103] <= 0
 mccormick2[104]: - x[104] + r[104] <= 0
 mccormick2[105]: - x[105] + r[105] <= 0
 mccormick2[106]: - x[106] + r[106] <= 0
 mccormick2[107]: - x[107] + r[107] <= 0
 mccormick2[108]: - x[108] + r[108] <= 0
 mccormick2[109]: - x[109] + r[109] <= 0
 mccormick2[110]: - x[110] + r[110] <= 0
 mccormick2[111]: - x[111] + r[111] <= 0
 mccormick2[112]: - x[112] + r[112] <= 0
 mccormick2[113]: - x[113] + r[113] <= 0
 mccormick2[114]: - x[114] + r[114] <= 0
 mccormick2[115]: - x[115] + r[115] <= 0
 mccormick2[116]: - x[116] + r[116] <= 0
 mccormick2[117]: - x[117] + r[117] <= 0
 mccormick2[118]: - x[118] + r[118] <= 0
 mccormick2[119]: - x[119] + r[119] <= 0
 mccormick2[120]: - x[120] + r[120] <= 0
 mccormick2[121]: - x[121] + r[121] <= 0
 mccormick2[122]: - x[122] + r[122] <= 0
 mccormick2[123]: - x[123] + r[123] <= 0
 mccormick2[124]: - x[124] + r[124] <= 0
 mccormick2[125]: - x[125] + r[125] <= 0
 mccormick2[126]: - x[126] + r[126] <= 0
 mccormick2[127]: - x[127] + r[127] <= 0
 mccormick2[128]: - x[128] + r[128] <= 0
 mccormick2[129]: - x[129] + r[129] <= 0
 mccormick2[130]: - x[130] + r[130] <= 0
 mccormick2[131]: - x[131] + r[131] <= 0
 mccormick2[132]: - x[132] + r[132] <= 0
 mccormick2[133]: - x[133] + r[133] <= 0
 mccormick2[134]: - x[134] + r[134] <= 0
 mccormick2[135]: - x[135] + r[135] <= 0
 mccormick2[136]: - x[136] + r[136] <= 0
 mccormick2[137]: - x[137] + r[137] <= 0
 mccormick2[138]: - x[138] + r[138] <= 0
 mccormick2[139]: - x[139] + r[139] <= 0
 mccormick3[0]: x[0] + u[0] - r[0] <= 1
 mccormick3[1]: x[1] + u[1] - r[1] <= 1
 mccormick3[2]: x[2] + u[2] - r[2] <= 1
 mccormick3[3]: x[3] + u[3] - r[3] <= 1
 mccormick3[4]: x[4] + u[4] - r[4] <= 1
 mccormick3[5]: x[5] + u[5] - r[5] <= 1
 mccormick3[6]: x[6] + u[6] - r[6] <= 1
 mccormick3[7]: x[7] + u[7] - r[7] <= 1
 mccormick3[8]: x[8] + u[8] - r[8] <= 1
 mccormick3[9]: x[9] + u[9] - r[9] <= 1
 mccormick3[10]: x[10] + u[10] - r[10] <= 1
 mccormick3[11]: x[11] + u[11] - r[11] <= 1
 mccormick3[12]: x[12] + u[12] - r[12] <= 1
 mccormick3[13]: x[13] + u[13] - r[13] <= 1
 mccormick3[14]: x[14] + u[14] - r[14] <= 1
 mccormick3[15]: x[15] + u[15] - r[15] <= 1
 mccormick3[16]: x[16] + u[16] - r[16] <= 1
 mccormick3[17]: x[17] + u[17] - r[17] <= 1
 mccormick3[18]: x[18] + u[18] - r[18] <= 1
 mccormick3[19]: x[19] + u[19] - r[19] <= 1
 mccormick3[20]: x[20] + u[20] - r[20] <= 1
 mccormick3[21]: x[21] + u[21] - r[21] <= 1
 mccormick3[22]: x[22] + u[22] - r[22] <= 1
 mccormick3[23]: x[23] + u[23] - r[23] <= 1
 mccormick3[24]: x[24] + u[24] - r[24] <= 1
 mccormick3[25]: x[25] + u[25] - r[25] <= 1
 mccormick3[26]: x[26] + u[26] - r[26] <= 1
 mccormick3[27]: x[27] + u[27] - r[27] <= 1
 mccormick3[28]: x[28] + u[28] - r[28] <= 1
 mccormick3[29]: x[29] + u[29] - r[29] <= 1
 mccormick3[30]: x[30] + u[30] - r[30] <= 1
 mccormick3[31]: x[31] + u[31] - r[31] <= 1
 mccormick3[32]: x[32] + u[32] - r[32] <= 1
 mccormick3[33]: x[33] + u[33] - r[33] <= 1
 mccormick3[34]: x[34] + u[34] - r[34] <= 1
 mccormick3[35]: x[35] + u[35] - r[35] <= 1
 mccormick3[36]: x[36] + u[36] - r[36] <= 1
 mccormick3[37]: x[37] + u[37] - r[37] <= 1
 mccormick3[38]: x[38] + u[38] - r[38] <= 1
 mccormick3[39]: x[39] + u[39] - r[39] <= 1
 mccormick3[40]: x[40] + u[40] - r[40] <= 1
 mccormick3[41]: x[41] + u[41] - r[41] <= 1
 mccormick3[42]: x[42] + u[42] - r[42] <= 1
 mccormick3[43]: x[43] + u[43] - r[43] <= 1
 mccormick3[44]: x[44] + u[44] - r[44] <= 1
 mccormick3[45]: x[45] + u[45] - r[45] <= 1
 mccormick3[46]: x[46] + u[46] - r[46] <= 1
 mccormick3[47]: x[47] + u[47] - r[47] <= 1
 mccormick3[48]: x[48] + u[48] - r[48] <= 1
 mccormick3[49]: x[49] + u[49] - r[49] <= 1
 mccormick3[50]: x[50] + u[50] - r[50] <= 1
 mccormick3[51]: x[51] + u[51] - r[51] <= 1
 mccormick3[52]: x[52] + u[52] - r[52] <= 1
 mccormick3[53]: x[53] + u[53] - r[53] <= 1
 mccormick3[54]: x[54] + u[54] - r[54] <= 1
 mccormick3[55]: x[55] + u[55] - r[55] <= 1
 mccormick3[56]: x[56] + u[56] - r[56] <= 1
 mccormick3[57]: x[57] + u[57] - r[57] <= 1
 mccormick3[58]: x[58] + u[58] - r[58] <= 1
 mccormick3[59]: x[59] + u[59] - r[59] <= 1
 mccormick3[60]: x[60] + u[60] - r[60] <= 1
 mccormick3[61]: x[61] + u[61] - r[61] <= 1
 mccormick3[62]: x[62] + u[62] - r[62] <= 1
 mccormick3[63]: x[63] + u[63] - r[63] <= 1
 mccormick3[64]: x[64] + u[64] - r[64] <= 1
 mccormick3[65]: x[65] + u[65] - r[65] <= 1
 mccormick3[66]: x[66] + u[66] - r[66] <= 1
 mccormick3[67]: x[67] + u[67] - r[67] <= 1
 mccormick3[68]: x[68] + u[68] - r[68] <= 1
 mccormick3[69]: x[69] + u[69] - r[69] <= 1
 mccormick3[70]: x[70] + u[70] - r[70] <= 1
 mccormick3[71]: x[71] + u[71] - r[71] <= 1
 mccormick3[72]: x[72] + u[72] - r[72] <= 1
 mccormick3[73]: x[73] + u[73] - r[73] <= 1
 mccormick3[74]: x[74] + u[74] - r[74] <= 1
 mccormick3[75]: x[75] + u[75] - r[75] <= 1
 mccormick3[76]: x[76] + u[76] - r[76] <= 1
 mccormick3[77]: x[77] + u[77] - r[77] <= 1
 mccormick3[78]: x[78] + u[78] - r[78] <= 1
 mccormick3[79]: x[79] + u[79] - r[79] <= 1
 mccormick3[80]: x[80] + u[80] - r[80] <= 1
 mccormick3[81]: x[81] + u[81] - r[81] <= 1
 mccormick3[82]: x[82] + u[82] - r[82] <= 1
 mccormick3[83]: x[83] + u[83] - r[83] <= 1
 mccormick3[84]: x[84] + u[84] - r[84] <= 1
 mccormick3[85]: x[85] + u[85] - r[85] <= 1
 mccormick3[86]: x[86] + u[86] - r[86] <= 1
 mccormick3[87]: x[87] + u[87] - r[87] <= 1
 mccormick3[88]: x[88] + u[88] - r[88] <= 1
 mccormick3[89]: x[89] + u[89] - r[89] <= 1
 mccormick3[90]: x[90] + u[90] - r[90] <= 1
 mccormick3[91]: x[91] + u[91] - r[91] <= 1
 mccormick3[92]: x[92] + u[92] - r[92] <= 1
 mccormick3[93]: x[93] + u[93] - r[93] <= 1
 mccormick3[94]: x[94] + u[94] - r[94] <= 1
 mccormick3[95]: x[95] + u[95] - r[95] <= 1
 mccormick3[96]: x[96] + u[96] - r[96] <= 1
 mccormick3[97]: x[97] + u[97] - r[97] <= 1
 mccormick3[98]: x[98] + u[98] - r[98] <= 1
 mccormick3[99]: x[99] + u[99] - r[99] <= 1
 mccormick3[100]: x[100] + u[100] - r[100] <= 1
 mccormick3[101]: x[101] + u[101] - r[101] <= 1
 mccormick3[102]: x[102] + u[102] - r[102] <= 1
 mccormick3[103]: x[103] + u[103] - r[103] <= 1
 mccormick3[104]: x[104] + u[104] - r[104] <= 1
 mccormick3[105]: x[105] + u[105] - r[105] <= 1
 mccormick3[106]: x[106] + u[106] - r[106] <= 1
 mccormick3[107]: x[107] + u[107] - r[107] <= 1
 mccormick3[108]: x[108] + u[108] - r[108] <= 1
 mccormick3[109]: x[109] + u[109] - r[109] <= 1
 mccormick3[110]: x[110] + u[110] - r[110] <= 1
 mccormick3[111]: x[111] + u[111] - r[111] <= 1
 mccormick3[112]: x[112] + u[112] - r[112] <= 1
 mccormick3[113]: x[113] + u[113] - r[113] <= 1
 mccormick3[114]: x[114] + u[114] - r[114] <= 1
 mccormick3[115]: x[115] + u[115] - r[115] <= 1
 mccormick3[116]: x[116] + u[116] - r[116] <= 1
 mccormick3[117]: x[117] + u[117] - r[117] <= 1
 mccormick3[118]: x[118] + u[118] - r[118] <= 1
 mccormick3[119]: x[119] + u[119] - r[119] <= 1
 mccormick3[120]: x[120] + u[120] - r[120] <= 1
 mccormick3[121]: x[121] + u[121] - r[121] <= 1
 mccormick3[122]: x[122] + u[122] - r[122] <= 1
 mccormick3[123]: x[123] + u[123] - r[123] <= 1
 mccormick3[124]: x[124] + u[124] - r[124] <= 1
 mccormick3[125]: x[125] + u[125] - r[125] <= 1
 mccormick3[126]: x[126] + u[126] - r[126] <= 1
 mccormick3[127]: x[127] + u[127] - r[127] <= 1
 mccormick3[128]: x[128] + u[128] - r[128] <= 1
 mccormick3[129]: x[129] + u[129] - r[129] <= 1
 mccormick3[130]: x[130] + u[130] - r[130] <= 1
 mccormick3[131]: x[131] + u[131] - r[131] <= 1
 mccormick3[132]: x[132] + u[132] - r[132] <= 1
 mccormick3[133]: x[133] + u[133] - r[133] <= 1
 mccormick3[134]: x[134] + u[134] - r[134] <= 1
 mccormick3[135]: x[135] + u[135] - r[135] <= 1
 mccormick3[136]: x[136] + u[136] - r[136] <= 1
 mccormick3[137]: x[137] + u[137] - r[137] <= 1
 mccormick3[138]: x[138] + u[138] - r[138] <= 1
 mccormick3[139]: x[139] + u[139] - r[139] <= 1
Bounds
Binaries
 x[0] x[1] x[2] x[3] x[4] x[5] x[6] x[7] x[8] x[9] x[10] x[11] x[12] x[13]
 x[14] x[15] x[16] x[17] x[18] x[19] x[20] x[21] x[22] x[23] x[24] x[25]
 x[26] x[27] x[28] x[29] x[30] x[31] x[32] x[33] x[34] x[35] x[36] x[37]
 x[38] x[39] x[40] x[41] x[42] x[43] x[44] x[45] x[46] x[47] x[48] x[49]
 x[50] x[51] x[52] x[53] x[54] x[55] x[56] x[57] x[58] x[59] x[60] x[61]
 x[62] x[63] x[64] x[65] x[66] x[67] x[68] x[69] x[70] x[71] x[72] x[73]
 x[74] x[75] x[76] x[77] x[78] x[79] x[80] x[81] x[82] x[83] x[84] x[85]
 x[86] x[87] x[88] x[89] x[90] x[91] x[92] x[93] x[94] x[95] x[96] x[97]
 x[98] x[99] x[100] x[101] x[102] x[103] x[104] x[105] x[106] x[107] x[108]
 x[109] x[110] x[111] x[112] x[113] x[114] x[115] x[116] x[117] x[118]
 x[119] x[120] x[121] x[122] x[123] x[124] x[125] x[126] x[127] x[128]
 x[129] x[130] x[131] x[132] x[133] x[134] x[135] x[136] x[137] x[138]
 x[139] u[0] u[1] u[2] u[3] u[4] u[5] u[6] u[7] u[8] u[9] u[10] u[11] u[12]
 u[13] u[14] u[15] u[16] u[17] u[18] u[19] u[20] u[21] u[22] u[23] u[24]
 u[25] u[26] u[27] u[28] u[29] u[30] u[31] u[32] u[33] u[34] u[35] u[36]
 u[37] u[38] u[39] u[40] u[41] u[42] u[43] u[44] u[45] u[46] u[47] u[48]
 u[49] u[50] u[51] u[52] u[53] u[54] u[55] u[56] u[57] u[58] u[59] u[60]
 u[61] u[62] u[63] u[64] u[65] u[66] u[67] u[68] u[69] u[70] u[71] u[72]
 u[73] u[74] u[75] u[76] u[77] u[78] u[79] u[80] u[81] u[82] u[83] u[84]
 u[85] u[86] u[87] u[88] u[89] u[90] u[91] u[92] u[93] u[94] u[95] u[96]
 u[97] u[98] u[99] u[100] u[101] u[102] u[103] u[104] u[105] u[106] u[107]
 u[108] u[109] u[110] u[111] u[112] u[113] u[114] u[115] u[116] u[117]
 u[118] u[119] u[120] u[121] u[122] u[123] u[124] u[125] u[126] u[127]
 u[128] u[129] u[130] u[131] u[132] u[133] u[134] u[135] u[136] u[137]
 u[138] u[139] r[0] r[1] r[2] r[3] r[4] r[5] r[6] r[7] r[8] r[9] r[10]
 r[11] r[12] r[13] r[14] r[15] r[16] r[17] r[18] r[19] r[20] r[21] r[22]
 r[23] r[24] r[25] r[26] r[27] r[28] r[29] r[30] r[31] r[32] r[33] r[34]
 r[35] r[36] r[37] r[38] r[39] r[40] r[41] r[42] r[43] r[44] r[45] r[46]
 r[47] r[48] r[49] r[50] r[51] r[52] r[53] r[54] r[55] r[56] r[57] r[58]
 r[59] r[60] r[61] r[62] r[63] r[64] r[65] r[66] r[67] r[68] r[69] r[70]
 r[71] r[72] r[73] r[74] r[75] r[76] r[77] r[78] r[79] r[80] r[81] r[82]
 r[83] r[84] r[85] r[86] r[87] r[88] r[89] r[90] r[91] r[92] r[93] r[94]
 r[95] r[96] r[97] r[98] r[99] r[100] r[101] r[102] r[103] r[104] r[105]
 r[106] r[107] r[108] r[109] r[110] r[111] r[112] r[113] r[114] r[115]
 r[116] r[117] r[118] r[119] r[120] r[121] r[122] r[123] r[124] r[125]
 r[126] r[127] r[128] r[129] r[130] r[131] r[132] r[133] r[134] r[135]
 r[136] r[137] r[138] r[139]
End
